Route #1: 25 53 6 37 15 7 46 28
Route #2: 40 5 12 9 38 22 50 23
Route #3: 43 14 51 44 17 8 10 18 19
Route #4: 2 34 30 54 31 20 55 11 33 49 13
Route #5: 3 36 32 48 35 16 52 27
Route #6: 1 21 26 4 39 47 42 29
Route #7: 45 41 24
Cost 744